(set-logic ALL)
(declare-fun i1 () Int)
(declare-fun it1 () Int)
(declare-fun it2 () Int)
(declare-fun i2 () Int)
(declare-fun it3 () Int)
(declare-fun i3 () Int)
(declare-fun i4 () Int)
(declare-fun it4 () Int)
(declare-fun it35 () Int)
(declare-fun it36 () Int)
(declare-fun it37 () Int)
(declare-fun it38 () Int)
(assert (= (+ i1 (- 1)) 0))
(assert (= (+ it1 (- 2)) 0))
(assert (= (+ (* i2 (- 1)) it2 (- 1)) 0))
(assert (= (+ (* i3 (- 1)) it3) 0))
(assert (= (+ it4 (* i4 (- 1))) 0))
(assert (and (> 1 0)
     (>= (+ it1 (- 2)) 0)
     (>= (+ it4 (- 1)) 0)
     (>= (+ (* it1 (- 1)) 2) 0)))
(assert (= (+ (* it1 (- 1)) it35) 0))
(assert (= (+ (* it4 (- 1)) (* it2 (- 1)) it36) 0))
(assert (= (+ (+ 0 it37) (* (exp 2 it4) (+ 0 it3) (+ 0 (- 1)))) (+ 0 0)))
(assert (= it38 0))
(assert (and (= 1 0) (>= (+ it35 (- 2)) 0) (> it38 0) (>= (+ (* it35 (- 1)) 2) 0)))
(check-sat)
